28919
0 1 0 0 1 0 0 0 0 1 1 1 0 1 0 1 1 1 1 1 1 0 0 1 0 1 0 0 0 1 
18 19 16 18 15 11 15 11 18 17 4 17 13 1 19 18 1 20 16 17 18 16 23 16 10 18 18 19 29 15 19 19 4 16 18 19 20 9 16 16 18 9 19 4 20 19 13 16 19 20 16 16 16 16 20 19 11 9 18 25 29 17 18 20 13 11 23 17 19 25 18 11 19 9 23 23 20 23 20 16 10 17 9 25 29 13 19 23 18 25 17 19 25 25 17 13 11 11 17 17 17 15 25 18 4 17 4 16 16 13 19 4 18 11 11 20 11 25 17 20 9 11 17 19 9 16 15 11 19 17 11 16 25 20 23 9 1 13 17 10 11 18 11 11 25 23 16 15 18 25 16 17 23 17 20 11 23 15 13 13 13 17 10 16 23 18 23 4 1 15 1 20 19 10 4 16 17 10 29 10 23 15 16 19 11 9 11 23 17 16 16 16 19 4 25 11 25 15 10 19 
